Route #1: 31 16 27 14 60 10 28 36 59 25 29 32
Route #2: 45 55 43 57 33 46 52 23 49 2 11 6
Route #3: 4 41 3 24 48 56 40 13 44 51
Route #4: 
Route #5: 39 53 20 58 9 8 18 30 38 1 19 42
Route #6: 7 5 35 54 22 50 37
Route #7: 21 17 26 12 47 34 15
Route #8: 
Route #9: 
cost 1855.8173219977637
